
Gurobi 9.1.2 (linux64, gurobi_cl) logging started Fri Jul 30 13:51:55 2021

Using license file /opt/gurobi/gurobi.lic
Set parameter TimeLimit to value 600
Set parameter MIPFocus to value 2
Set parameter LogFile to value 912-MIPFocus2-Presolve1-glass4-2.log
Set parameter Presolve to value 1
Set parameter Seed to value 2

Gurobi Optimizer version 9.1.2 build v9.1.2rc0 (linux64)
Copyright (c) 2021, Gurobi Optimization, LLC

Read MPS format model from file /nfs/models/mip/glass4.mps.bz2
Reading time = 0.18 seconds
glass4: 396 rows, 322 columns, 1815 nonzeros
Thread count: 4 physical cores, 8 logical processors, using up to 8 threads
Optimize a model with 396 rows, 322 columns and 1815 nonzeros
Model fingerprint: 0x0a9d9037
Variable types: 20 continuous, 302 integer (0 binary)
Coefficient statistics:
  Matrix range     [1e+00, 8e+06]
  Objective range  [1e+00, 1e+06]
  Bounds range     [1e+00, 8e+02]
  RHS range        [1e+00, 8e+06]
Presolve removed 4 rows and 6 columns
Presolve time: 0.00s
Presolved: 392 rows, 316 columns, 1811 nonzeros
Variable types: 19 continuous, 297 integer (297 binary)
Found heuristic solution: objective 3.133356e+09

Root relaxation: objective 8.000024e+08, 72 iterations, 0.00 seconds

    Nodes    |    Current Node    |     Objective Bounds      |     Work
 Expl Unexpl |  Obj  Depth IntInf | Incumbent    BestBd   Gap | It/Node Time

     0     0 8.0000e+08    0   72 3.1334e+09 8.0000e+08  74.5%     -    0s
H    0     0                    2.350019e+09 8.0000e+08  66.0%     -    0s
H    0     0                    2.100019e+09 8.0000e+08  61.9%     -    0s
H    0     0                    2.100018e+09 8.0000e+08  61.9%     -    0s
     0     0 8.0000e+08    0   72 2.1000e+09 8.0000e+08  61.9%     -    0s
     0     0 8.0000e+08    0   72 2.1000e+09 8.0000e+08  61.9%     -    0s
     0     2 8.0000e+08    0   72 2.1000e+09 8.0000e+08  61.9%     -    0s
H  127   236                    2.050018e+09 8.0000e+08  61.0%   4.6    0s
H  805   766                    2.000017e+09 8.0000e+08  60.0%   6.8    0s
H  833   746                    1.950017e+09 8.0000e+08  59.0%   7.2    0s
H  974   789                    1.900017e+09 8.0000e+08  57.9%   8.2    0s
H 1028   795                    1.900017e+09 8.0000e+08  57.9%   9.1    0s
H 1097   817                    1.800016e+09 8.0000e+08  55.6%  11.5    0s
H 1107   775                    1.800016e+09 8.0000e+08  55.6%  11.5    0s
H 1122   749                    1.800016e+09 8.0000e+08  55.6%  11.5    0s
H 1192   762                    1.733350e+09 8.0000e+08  53.8%  11.8    1s
H 1442   858                    1.700014e+09 8.0000e+08  52.9%  12.7    1s
* 1807  1043              84    1.666681e+09 8.0000e+08  52.0%  13.1    1s
H 3049  1523                    1.650014e+09 8.0001e+08  51.5%  15.9    2s
H 3053  1507                    1.600014e+09 8.0001e+08  50.0%  16.0    2s
H 3082  1479                    1.575014e+09 8.0001e+08  49.2%  16.6    2s
  7950  4506 infeasible   29      1.5750e+09 8.0001e+08  49.2%  24.5    5s
H 8290  4564                    1.575014e+09 8.0001e+08  49.2%  25.1    5s
 13686  7808 1.1800e+09   30   57 1.5750e+09 8.0001e+08  49.2%  28.3   10s
 20434 10560 1.3125e+09   37   32 1.5750e+09 8.0001e+08  49.2%  29.6   15s
 26621 13951 1.0000e+09   51   53 1.5750e+09 8.0877e+08  48.6%  29.9   20s
 42746 22478 1.4000e+09   43   40 1.5750e+09 8.4001e+08  46.7%  28.3   25s
*46119 23668              46    1.544458e+09 8.4001e+08  45.6%  27.4   25s
*46125 23548              45    1.533347e+09 8.4001e+08  45.2%  27.4   25s
 58994 29415 1.2000e+09   58   51 1.5333e+09 8.5807e+08  44.0%  27.4   30s
H60493 29329                    1.500013e+09 8.6667e+08  42.2%  27.7   30s
 69434 32467 1.4000e+09   52   60 1.5000e+09 9.0000e+08  40.0%  28.7   35s
 82048 37843 9.0001e+08   28   72 1.5000e+09 9.0001e+08  40.0%  28.7   40s
 94561 42217 infeasible   44      1.5000e+09 9.0001e+08  40.0%  28.8   45s
 107617 46345 infeasible   43      1.5000e+09 9.0001e+08  40.0%  28.6   50s
*108868 40466              52    1.500003e+09 9.0001e+08  40.0%  28.6   50s
 119878 43090 1.4000e+09   48   40 1.5000e+09 9.2163e+08  38.6%  28.6   55s
 132438 46340 9.6865e+08   40   59 1.5000e+09 9.6667e+08  35.6%  28.5   60s
 142817 48766 1.2000e+09   34   60 1.5000e+09 1.0000e+09  33.3%  28.6   65s
 153729 52441 1.0508e+09   26   82 1.5000e+09 1.0000e+09  33.3%  29.0   70s
 161790 54720     cutoff   38      1.5000e+09 1.0000e+09  33.3%  29.7   75s
 170862 57408     cutoff   45      1.5000e+09 1.0000e+09  33.3%  30.1   80s
 179516 59974 1.0000e+09   29   73 1.5000e+09 1.0000e+09  33.3%  30.4   85s
 188871 62632 1.4400e+09   50   35 1.5000e+09 1.0000e+09  33.3%  30.6   90s
 197230 64901 infeasible   36      1.5000e+09 1.0000e+09  33.3%  30.7   95s
*198406 64465              66    1.480016e+09 1.0000e+09  32.4%  30.7   95s
 206018 65604 infeasible   50      1.4800e+09 1.0000e+09  32.4%  31.1  100s
H212608 66034                    1.475016e+09 1.0000e+09  32.2%  31.5  105s
H213199 62132                    1.400016e+09 1.0000e+09  28.6%  31.5  106s
H213357 39856                    1.266680e+09 1.0000e+09  21.1%  31.5  106s
 223586 30199 infeasible   25      1.2667e+09 1.0800e+09  14.7%  31.3  110s
 239423 16159 infeasible   51      1.2667e+09 1.1943e+09  5.71%  30.9  115s
*244009  8188              41    1.200013e+09 1.2000e+09  0.00%  30.9  117s

Cutting planes:
  Gomory: 79
  Cover: 1282
  Implied bound: 194
  Projected implied bound: 5
  MIR: 63
  Flow cover: 521
  GUB cover: 1
  Inf proof: 148
  RLT: 52
  Relax-and-lift: 186

Explored 245027 nodes (7589801 simplex iterations) in 117.27 seconds
Thread count was 8 (of 8 available processors)

Solution count 10: 1.20001e+09 1.26668e+09 1.40002e+09 ... 1.57501e+09

Optimal solution found (tolerance 1.00e-04)
Best objective 1.200012600000e+09, best bound 1.200004505876e+09, gap 0.0007%
